NAME: cluster_16
TYPE: TSP
DIMENSION: 7
EDGE_WEIGHT_TYPE: EUC_2D
NODE_COORD_SECTION
1 12000.00 16000.00
2 640.32 31675.75
3 1101.25 30669.45
4 2037.93 31205.53
5 2200.71 31200.60
6 1587.48 30156.06
7 560.27 30317.46
EOF
